; benchmark generated from python API
(set-info :status unknown)
(declare-fun D_func (Int Int) Int)
(declare-fun size () (Array Int Int))
(declare-fun load () (Array Int Int))
(declare-fun path () (Array Int (Array Int Int)))
(declare-fun path () (Array Int Int))
(declare-fun b_path () (Array Int (Array Int Bool)))
(declare-fun total_distance () (Array Int Int))
(declare-fun max_dist () Int)
(assert
 (= (D_func 0 0) 0))
(assert
 (= (D_func 0 1) 21))
(assert
 (= (D_func 0 2) 86))
(assert
 (= (D_func 0 3) 99))
(assert
 (= (D_func 1 0) 21))
(assert
 (= (D_func 1 1) 0))
(assert
 (= (D_func 1 2) 71))
(assert
 (= (D_func 1 3) 80))
(assert
 (= (D_func 2 0) 92))
(assert
 (= (D_func 2 1) 71))
(assert
 (= (D_func 2 2) 0))
(assert
 (= (D_func 2 3) 61))
(assert
 (= (D_func 3 0) 59))
(assert
 (= (D_func 3 1) 80))
(assert
 (= (D_func 3 2) 61))
(assert
 (= (D_func 3 3) 0))
(assert
 (let ((?x73 (select size 1)))
 (= ?x73 20)))
(assert
 (let ((?x76 (select size 2)))
 (= ?x76 17)))
(assert
 (let ((?x79 (select size 3)))
 (= ?x79 6)))
(assert
 (let ((?x82 (select load 1)))
 (= ?x82 18)))
(assert
 (let ((?x85 (select load 2)))
 (= ?x85 30)))
(assert
 (and (<= 0 (select (select path 1) 1)) (>= 4 (select (select path 1) 1))))
(assert
 (and (<= 0 (select (select path 1) 2)) (>= 4 (select (select path 1) 2))))
(assert
 (and (<= 0 (select (select path 1) 3)) (>= 4 (select (select path 1) 3))))
(assert
 (and (<= 0 (select (select path 1) 4)) (>= 4 (select (select path 1) 4))))
(assert
 (and (<= 0 (select (select path 2) 1)) (>= 4 (select (select path 2) 1))))
(assert
 (and (<= 0 (select (select path 2) 2)) (>= 4 (select (select path 2) 2))))
(assert
 (and (<= 0 (select (select path 2) 3)) (>= 4 (select (select path 2) 3))))
(assert
 (and (<= 0 (select (select path 2) 4)) (>= 4 (select (select path 2) 4))))
(assert
 (let ((?x137 (select path 1)))
 (let (($x138 (<= 3 ?x137)))
 (and $x138 (>= 4 ?x137)))))
(assert
 (let ((?x143 (select path 2)))
 (let (($x144 (<= 3 ?x143)))
 (and $x144 (>= 4 ?x143)))))
(assert
 (let ((?x88 (select path 1)))
 (let ((?x89 (select ?x88 1)))
 (= 4 ?x89))))
(assert
 (let ((?x137 (select path 1)))
 (let ((?x88 (select path 1)))
 (let ((?x150 (select ?x88 ?x137)))
 (= 4 ?x150)))))
(assert
 (let ((?x112 (select path 2)))
 (let ((?x113 (select ?x112 1)))
 (= 4 ?x113))))
(assert
 (let ((?x143 (select path 2)))
 (let ((?x112 (select path 2)))
 (let ((?x156 (select ?x112 ?x143)))
 (= 4 ?x156)))))
(assert
 (=> (< (select path 1) 1) (= 0 (select (select path 1) 1))))
(assert
 (=> (< (select path 1) 2) (= 0 (select (select path 1) 2))))
(assert
 (=> (< (select path 1) 3) (= 0 (select (select path 1) 3))))
(assert
 (=> (< (select path 1) 4) (= 0 (select (select path 1) 4))))
(assert
 (=> (< (select path 2) 1) (= 0 (select (select path 2) 1))))
(assert
 (=> (< (select path 2) 2) (= 0 (select (select path 2) 2))))
(assert
 (=> (< (select path 2) 3) (= 0 (select (select path 2) 3))))
(assert
 (=> (< (select path 2) 4) (= 0 (select (select path 2) 4))))
(assert
 (let ((?x82 (select load 1)))
 (let ((?x79 (select size 3)))
 (let ((?x227 (select b_path 1)))
 (let (($x234 (select ?x227 3)))
 (let ((?x235 (ite $x234 ?x79 0)))
 (let ((?x76 (select size 2)))
 (let (($x232 (select ?x227 2)))
 (let ((?x233 (ite $x232 ?x76 0)))
 (let ((?x73 (select size 1)))
 (let (($x230 (select ?x227 1)))
 (let ((?x231 (ite $x230 ?x73 0)))
 (let ((?x236 (+ ?x231 ?x233 ?x235)))
 (<= ?x236 ?x82))))))))))))))
(assert
 (let ((?x85 (select load 2)))
 (let ((?x79 (select size 3)))
 (let ((?x240 (select b_path 2)))
 (let (($x249 (select ?x240 3)))
 (let ((?x250 (ite $x249 ?x79 0)))
 (let ((?x76 (select size 2)))
 (let (($x247 (select ?x240 2)))
 (let ((?x248 (ite $x247 ?x76 0)))
 (let ((?x73 (select size 1)))
 (let (($x245 (select ?x240 1)))
 (let ((?x246 (ite $x245 ?x73 0)))
 (let ((?x251 (+ ?x246 ?x248 ?x250)))
 (<= ?x251 ?x85))))))))))))))
(assert
 (let ((?x240 (select b_path 2)))
 (let (($x245 (select ?x240 1)))
 (let ((?x259 (ite $x245 1 0)))
 (let ((?x227 (select b_path 1)))
 (let (($x230 (select ?x227 1)))
 (let ((?x254 (ite $x230 1 0)))
 (= (+ ?x254 ?x259) 1))))))))
(assert
 (let ((?x240 (select b_path 2)))
 (let (($x247 (select ?x240 2)))
 (let ((?x263 (ite $x247 1 0)))
 (let ((?x227 (select b_path 1)))
 (let (($x232 (select ?x227 2)))
 (let ((?x262 (ite $x232 1 0)))
 (= (+ ?x262 ?x263) 1))))))))
(assert
 (let ((?x240 (select b_path 2)))
 (let (($x249 (select ?x240 3)))
 (let ((?x267 (ite $x249 1 0)))
 (let ((?x227 (select b_path 1)))
 (let (($x234 (select ?x227 3)))
 (let ((?x266 (ite $x234 1 0)))
 (= (+ ?x266 ?x267) 1))))))))
(assert
 (let ((?x227 (select b_path 1)))
 (let (($x234 (select ?x227 3)))
 (let ((?x266 (ite $x234 1 0)))
 (let (($x232 (select ?x227 2)))
 (let ((?x262 (ite $x232 1 0)))
 (let (($x230 (select ?x227 1)))
 (let ((?x254 (ite $x230 1 0)))
 (<= (+ ?x254 ?x262 ?x266) 4)))))))))
(assert
 (let ((?x240 (select b_path 2)))
 (let (($x249 (select ?x240 3)))
 (let ((?x267 (ite $x249 1 0)))
 (let (($x247 (select ?x240 2)))
 (let ((?x263 (ite $x247 1 0)))
 (let (($x245 (select ?x240 1)))
 (let ((?x259 (ite $x245 1 0)))
 (<= (+ ?x259 ?x263 ?x267) 4)))))))))
(assert
 (let ((?x88 (select path 1)))
 (let ((?x100 (select ?x88 3)))
 (let ((?x94 (select ?x88 2)))
 (let ((?x89 (select ?x88 1)))
 (and (distinct ?x89 ?x94 ?x100) true))))))
(assert
 (let ((?x112 (select path 2)))
 (let ((?x125 (select ?x112 3)))
 (let ((?x119 (select ?x112 2)))
 (let ((?x113 (select ?x112 1)))
 (and (distinct ?x113 ?x119 ?x125) true))))))
(assert
 (let ((?x88 (select path 1)))
 (let ((?x106 (select ?x88 4)))
 (let (($x279 (= ?x106 1)))
 (let ((?x100 (select ?x88 3)))
 (let (($x278 (= ?x100 1)))
 (let ((?x94 (select ?x88 2)))
 (let (($x277 (= ?x94 1)))
 (let ((?x89 (select ?x88 1)))
 (let (($x276 (= ?x89 1)))
 (let ((?x227 (select b_path 1)))
 (let (($x230 (select ?x227 1)))
 (=> $x230 (or $x276 $x277 $x278 $x279))))))))))))))
(assert
 (let (($x288 (and (and (distinct (select (select path 1) 1) 1) true) (and (distinct (select (select path 1) 2) 1) true) (and (distinct (select (select path 1) 3) 1) true) (and (distinct (select (select path 1) 4) 1) true))))
 (let ((?x227 (select b_path 1)))
 (let (($x230 (select ?x227 1)))
 (let (($x282 (not $x230)))
 (=> $x282 $x288))))))
(assert
 (let ((?x88 (select path 1)))
 (let ((?x106 (select ?x88 4)))
 (let (($x299 (= ?x106 2)))
 (let ((?x100 (select ?x88 3)))
 (let (($x298 (= ?x100 2)))
 (let ((?x94 (select ?x88 2)))
 (let (($x297 (= ?x94 2)))
 (let ((?x89 (select ?x88 1)))
 (let (($x296 (= ?x89 2)))
 (let ((?x227 (select b_path 1)))
 (let (($x232 (select ?x227 2)))
 (=> $x232 (or $x296 $x297 $x298 $x299))))))))))))))
(assert
 (let (($x308 (and (and (distinct (select (select path 1) 1) 2) true) (and (distinct (select (select path 1) 2) 2) true) (and (distinct (select (select path 1) 3) 2) true) (and (distinct (select (select path 1) 4) 2) true))))
 (let ((?x227 (select b_path 1)))
 (let (($x232 (select ?x227 2)))
 (let (($x302 (not $x232)))
 (=> $x302 $x308))))))
(assert
 (let ((?x88 (select path 1)))
 (let ((?x106 (select ?x88 4)))
 (let (($x319 (= ?x106 3)))
 (let ((?x100 (select ?x88 3)))
 (let (($x318 (= ?x100 3)))
 (let ((?x94 (select ?x88 2)))
 (let (($x317 (= ?x94 3)))
 (let ((?x89 (select ?x88 1)))
 (let (($x316 (= ?x89 3)))
 (let ((?x227 (select b_path 1)))
 (let (($x234 (select ?x227 3)))
 (=> $x234 (or $x316 $x317 $x318 $x319))))))))))))))
(assert
 (let (($x328 (and (and (distinct (select (select path 1) 1) 3) true) (and (distinct (select (select path 1) 2) 3) true) (and (distinct (select (select path 1) 3) 3) true) (and (distinct (select (select path 1) 4) 3) true))))
 (let ((?x227 (select b_path 1)))
 (let (($x234 (select ?x227 3)))
 (let (($x322 (not $x234)))
 (=> $x322 $x328))))))
(assert
 (let ((?x112 (select path 2)))
 (let ((?x131 (select ?x112 4)))
 (let (($x339 (= ?x131 1)))
 (let ((?x125 (select ?x112 3)))
 (let (($x338 (= ?x125 1)))
 (let ((?x119 (select ?x112 2)))
 (let (($x337 (= ?x119 1)))
 (let ((?x113 (select ?x112 1)))
 (let (($x336 (= ?x113 1)))
 (let ((?x240 (select b_path 2)))
 (let (($x245 (select ?x240 1)))
 (=> $x245 (or $x336 $x337 $x338 $x339))))))))))))))
(assert
 (let (($x348 (and (and (distinct (select (select path 2) 1) 1) true) (and (distinct (select (select path 2) 2) 1) true) (and (distinct (select (select path 2) 3) 1) true) (and (distinct (select (select path 2) 4) 1) true))))
 (let ((?x240 (select b_path 2)))
 (let (($x245 (select ?x240 1)))
 (let (($x342 (not $x245)))
 (=> $x342 $x348))))))
(assert
 (let ((?x112 (select path 2)))
 (let ((?x131 (select ?x112 4)))
 (let (($x359 (= ?x131 2)))
 (let ((?x125 (select ?x112 3)))
 (let (($x358 (= ?x125 2)))
 (let ((?x119 (select ?x112 2)))
 (let (($x357 (= ?x119 2)))
 (let ((?x113 (select ?x112 1)))
 (let (($x356 (= ?x113 2)))
 (let ((?x240 (select b_path 2)))
 (let (($x247 (select ?x240 2)))
 (=> $x247 (or $x356 $x357 $x358 $x359))))))))))))))
(assert
 (let (($x368 (and (and (distinct (select (select path 2) 1) 2) true) (and (distinct (select (select path 2) 2) 2) true) (and (distinct (select (select path 2) 3) 2) true) (and (distinct (select (select path 2) 4) 2) true))))
 (let ((?x240 (select b_path 2)))
 (let (($x247 (select ?x240 2)))
 (let (($x362 (not $x247)))
 (=> $x362 $x368))))))
(assert
 (let ((?x112 (select path 2)))
 (let ((?x131 (select ?x112 4)))
 (let (($x379 (= ?x131 3)))
 (let ((?x125 (select ?x112 3)))
 (let (($x378 (= ?x125 3)))
 (let ((?x119 (select ?x112 2)))
 (let (($x377 (= ?x119 3)))
 (let ((?x113 (select ?x112 1)))
 (let (($x376 (= ?x113 3)))
 (let ((?x240 (select b_path 2)))
 (let (($x249 (select ?x240 3)))
 (=> $x249 (or $x376 $x377 $x378 $x379))))))))))))))
(assert
 (let (($x388 (and (and (distinct (select (select path 2) 1) 3) true) (and (distinct (select (select path 2) 2) 3) true) (and (distinct (select (select path 2) 3) 3) true) (and (distinct (select (select path 2) 4) 3) true))))
 (let ((?x240 (select b_path 2)))
 (let (($x249 (select ?x240 3)))
 (let (($x382 (not $x249)))
 (=> $x382 $x388))))))
(assert
 (let ((?x82 (select load 1)))
 (let ((?x79 (select size 3)))
 (let ((?x227 (select b_path 1)))
 (let (($x234 (select ?x227 3)))
 (let ((?x235 (ite $x234 ?x79 0)))
 (let ((?x76 (select size 2)))
 (let (($x232 (select ?x227 2)))
 (let ((?x233 (ite $x232 ?x76 0)))
 (let ((?x73 (select size 1)))
 (let (($x230 (select ?x227 1)))
 (let ((?x231 (ite $x230 ?x73 0)))
 (let ((?x236 (+ ?x231 ?x233 ?x235)))
 (<= ?x236 ?x82))))))))))))))
(assert
 (let ((?x82 (select load 1)))
 (let ((?x88 (select path 1)))
 (let ((?x100 (select ?x88 3)))
 (let ((?x401 (select size ?x100)))
 (let ((?x94 (select ?x88 2)))
 (let ((?x398 (select size ?x94)))
 (let ((?x403 (+ (ite (> (- (select path 1) 1) 2) ?x398 0) (ite (> (- (select path 1) 1) 3) ?x401 0))))
 (<= ?x403 ?x82)))))))))
(assert
 (let ((?x85 (select load 2)))
 (let ((?x79 (select size 3)))
 (let ((?x240 (select b_path 2)))
 (let (($x249 (select ?x240 3)))
 (let ((?x250 (ite $x249 ?x79 0)))
 (let ((?x76 (select size 2)))
 (let (($x247 (select ?x240 2)))
 (let ((?x248 (ite $x247 ?x76 0)))
 (let ((?x73 (select size 1)))
 (let (($x245 (select ?x240 1)))
 (let ((?x246 (ite $x245 ?x73 0)))
 (let ((?x251 (+ ?x246 ?x248 ?x250)))
 (<= ?x251 ?x85))))))))))))))
(assert
 (let ((?x85 (select load 2)))
 (let ((?x112 (select path 2)))
 (let ((?x125 (select ?x112 3)))
 (let ((?x426 (select size ?x125)))
 (let ((?x119 (select ?x112 2)))
 (let ((?x423 (select size ?x119)))
 (let ((?x428 (+ (ite (> (- (select path 2) 1) 2) ?x423 0) (ite (> (- (select path 2) 1) 3) ?x426 0))))
 (<= ?x428 ?x85)))))))))
(assert
 (let ((?x88 (select path 1)))
 (let ((?x106 (select ?x88 4)))
 (let ((?x459 (- ?x106 1)))
 (let ((?x94 (select ?x88 2)))
 (let ((?x449 (- ?x94 1)))
 (let (($x457 (and (distinct ?x106 0) true)))
 (let (($x443 (and (distinct ?x94 0) true)))
 (let ((?x100 (select ?x88 3)))
 (let (($x186 (= ?x100 0)))
 (let (($x452 (and (distinct ?x100 0) true)))
 (let ((?x89 (select ?x88 1)))
 (let (($x441 (and (distinct ?x89 0) true)))
 (let (($x179 (= ?x94 0)))
 (let ((?x471 (ite (and $x179 $x441 $x452) (D_func (- ?x89 1) (- ?x100 1)) 0)))
 (let ((?x468 (ite (and (= ?x89 0) (and (distinct (select ?x88 0) 0) true) $x443) (D_func (- (select ?x88 0) 1) ?x449) 0)))
 (let ((?x462 (+ (ite (and $x441 $x443) (D_func (- ?x89 1) ?x449) 0) (ite (and $x443 $x452) (D_func ?x449 (- ?x100 1)) 0) (ite (and $x452 $x457) (D_func (- ?x100 1) ?x459) 0))))
 (let ((?x476 (+ ?x462 (+ ?x468 ?x471 (ite (and $x186 $x443 $x457) (D_func ?x449 ?x459) 0)))))
 (let ((?x477 (select total_distance 1)))
 (= ?x477 ?x476))))))))))))))))))))
(assert
 (let ((?x112 (select path 2)))
 (let ((?x131 (select ?x112 4)))
 (let ((?x536 (- ?x131 1)))
 (let ((?x119 (select ?x112 2)))
 (let ((?x526 (- ?x119 1)))
 (let (($x534 (and (distinct ?x131 0) true)))
 (let (($x523 (and (distinct ?x119 0) true)))
 (let ((?x125 (select ?x112 3)))
 (let (($x220 (= ?x125 0)))
 (let (($x529 (and (distinct ?x125 0) true)))
 (let ((?x113 (select ?x112 1)))
 (let (($x522 (and (distinct ?x113 0) true)))
 (let (($x213 (= ?x119 0)))
 (let ((?x548 (ite (and $x213 $x522 $x529) (D_func (- ?x113 1) (- ?x125 1)) 0)))
 (let ((?x545 (ite (and (= ?x113 0) (and (distinct (select ?x112 0) 0) true) $x523) (D_func (- (select ?x112 0) 1) ?x526) 0)))
 (let ((?x539 (+ (ite (and $x522 $x523) (D_func (- ?x113 1) ?x526) 0) (ite (and $x523 $x529) (D_func ?x526 (- ?x125 1)) 0) (ite (and $x529 $x534) (D_func (- ?x125 1) ?x536) 0))))
 (let ((?x553 (+ ?x539 (+ ?x545 ?x548 (ite (and $x220 $x523 $x534) (D_func ?x526 ?x536) 0)))))
 (let ((?x554 (select total_distance 2)))
 (= ?x554 ?x553))))))))))))))))))))
(assert
 (let ((?x240 (select b_path 2)))
 (let (($x249 (select ?x240 3)))
 (let ((?x227 (select b_path 1)))
 (let (($x234 (select ?x227 3)))
 (let (($x605 (= $x234 $x249)))
 (let (($x382 (not $x249)))
 (let (($x604 (and $x234 $x382)))
 (let (($x247 (select ?x240 2)))
 (let (($x232 (select ?x227 2)))
 (let (($x603 (= $x232 $x247)))
 (let (($x362 (not $x247)))
 (let (($x602 (and $x232 $x362)))
 (let (($x245 (select ?x240 1)))
 (let (($x230 (select ?x227 1)))
 (let (($x601 (= $x230 $x245)))
 (let (($x342 (not $x245)))
 (let (($x600 (and $x230 $x342)))
 (let (($x611 (or $x600 (and $x601 (or $x602 (and $x603 (or $x604 (and $x605 true))))))))
 (let ((?x85 (select load 2)))
 (let ((?x82 (select load 1)))
 (let (($x599 (= ?x82 ?x85)))
 (ite $x599 $x611 true)))))))))))))))))))))))
(assert
 (let ((?x477 (select total_distance 1)))
 (>= max_dist ?x477)))
(assert
 (let ((?x554 (select total_distance 2)))
 (>= max_dist ?x554)))
(check-sat)
